proyfinal/src/viki/013/experimentInOfficeAgust.take6.output/7f8dca45-aad1-49b8-8a14-26ba951dbcbd.als.dat
{'cnf.clauses': '118081',
 'cnf.totvars': '69608',
 'conflict literals': '175',
 'conflicts': '36',
 'decisions': '2535',
 'memused.mb': '14.77',
 'outcome': 'UNSAT',
 'propagations': '70863',
 'restarts': '1',
 'solver.msecs': 32,
 'task.msecs': 78}
