proyfinal/src/viki/013/experimentInOfficeAgust.take6.output/7f8dca45-aad1-49b8-8a14-26ba951dbcbd.als.out
Reading from standard input... Use '--help' for help.
============================[ Problem Statistics ]=============================
|                                                                             |
|  Number of variables:         69608                                         |
|  Number of clauses:          118081                                         |
|  Parse time:                   0.02 s                                       |
|                                                                             |
============================[ Search Statistics ]==============================
| Conflicts |          ORIGINAL         |          LEARNT          | Progress |
|           |    Vars  Clauses Literals |    Limit  Clauses Lit/Cl |          |
===============================================================================
===============================================================================
restarts              : 1
conflicts             : 36             (1109 /sec)
decisions             : 2535           (0.00 % random) (78108 /sec)
propagations          : 70863          (2183423 /sec)
conflict literals     : 175            (18.60 % deleted)
Memory used           : 14.77 MB
CPU time              : 0.032455 s

UNSATISFIABLE
